language Essence 1.3

letting class be function(1 --> 5, 2 --> 1, 3 --> 4, 4 --> 4, 5 --> 3, 6 --> 5, 7 --> 2)
letting deck_length be 11
letting deck_width be 38
letting length be function(1 --> 10, 2 --> 8, 3 --> 3, 4 --> 5, 5 --> 1, 6 --> 2, 7 --> 2)
letting n_classes be 5
letting n_containers be 7
letting separation be function()
letting width be function(1 --> 16, 2 --> 2, 3 --> 19, 4 --> 21, 5 --> 8, 6 --> 10, 7 --> 8)
